AES/1_4_4/ssaes_r1-20_c4_rw1_e4_f0_k1-20_aes_1base_box_aes_mc_bidirectional/ExperimentMinisat_r1_k6cnf_2011-11-18-103624/Result
WARNING: for repeatability, setting FPU to use double precision
============================[ Problem Statistics ]=============================
|                                                                             |
|  Number of variables:           120                                         |
|  Number of clauses:             391                                         |
|  Parse time:                   0.00 s                                       |
|  Eliminated clauses:           0.00 Mb                                      |
|  Simplification time:          0.00 s                                       |
|                                                                             |
=============================[ Search Statistics ]==============================
| Conflicts  |          ORIGINAL         |          LEARNT          | Progress |
|            |    Vars  Clauses Literals |    Limit  Clauses Lit/Cl |          |
================================================================================
===============================================================================
restarts              : 1
conflicts             : 30             (30030 /sec)
decisions             : 36             (0.00 % random) (36036 /sec)
propagations          : 817            (817818 /sec)
conflict literals     : 106            (31.61 % deleted)
Memory used           : 8.00 MB
CPU time              : 0.000999 s

SATISFIABLE
